c This is QMaxSAT 2017 based on 14.07
c This is Glucose 3.0
c This is MiniSat 2.2.0
c WARNING: for repeatability, setting FPU to use double precision
c card = mrwto, comp = 0, pmodel = 0, narr = 8, mct = 29, verb = 0
cr firstCPXsol 0 0 0
c top = 167313
c |  Number of variables:    27896                                            |
c |  Number of clauses:      9145600                                          |
c |  Weight of hard clauses: 167313                                           |
c |  Number of soft clauses: 6496                                             |
c |  Number of unit soft clauses: 6496                                        |
c |  Maximum Cardinality (by unit): 1338496      (1338496     )               |
c last restart ## conflicts  :  3 8476 
o 2741 | cpuTime 1.08816 s
c Sum of weights = 167312
c A number of soft clauses remained = 812
c MRWTO encoding for Pseudo-Boolean Constraints
c sizeMax=2741
c No.0 Divisor=14	generated by pow1
c No.1 Divisor=15	generated by pow1
c No.2 Divisor=14	generated by pow1
c p0= 14	p1= 15	p2= 14	
c number of digits = 4
c linkingVar[0].size = 14, linkingVar[1].size = 15, linkingVar[2].size = 14, linkingVar[3].size = 1, 
c Pseudo-Boolean Constraints: 20505 variables and 244654 clauses
c Sum of weights = 167312
c A number of soft clauses remained = 812
c MRWTO encoding for Pseudo-Boolean Constraints
c sizeMax=2741
c No.0 Divisor=14	generated by pow1
c No.1 Divisor=15	generated by pow1
c No.2 Divisor=14	generated by pow1
c p0= 14	p1= 15	p2= 14	
c number of digits = 4
c linkingVar[0].size = 14, linkingVar[1].size = 15, linkingVar[2].size = 14, linkingVar[3].size = 1, 
c Pseudo-Boolean Constraints: 20505 variables and 244654 clauses
c Sum of weights = 167312
c A number of soft clauses remained = 812
c MRWTO encoding for Pseudo-Boolean Constraints
c sizeMax=2741
c No.0 Divisor=14	generated by pow1
c No.1 Divisor=15	generated by pow1
c No.2 Divisor=14	generated by pow1
c p0= 14	p1= 15	p2= 14	
c number of digits = 4
c linkingVar[0].size = 14, linkingVar[1].size = 15, linkingVar[2].size = 14, linkingVar[3].size = 1, 
c Pseudo-Boolean Constraints: 20505 variables and 244654 clauses
c Sum of weights = 167312
c A number of soft clauses remained = 812
c MRWTO encoding for Pseudo-Boolean Constraints
c sizeMax=2741
c No.0 Divisor=14	generated by pow1
c No.1 Divisor=15	generated by pow1
c No.2 Divisor=14	generated by pow1
c p0= 14	p1= 15	p2= 14	
c number of digits = 4
c linkingVar[0].size = 14, linkingVar[1].size = 15, linkingVar[2].size = 14, linkingVar[3].size = 1, 
c Pseudo-Boolean Constraints: 20505 variables and 244654 clauses
c Sum of weights = 167312
c A number of soft clauses remained = 812
c MRWTO encoding for Pseudo-Boolean Constraints
c sizeMax=2741
c No.0 Divisor=14	generated by pow1
c No.1 Divisor=15	generated by pow1
c No.2 Divisor=14	generated by pow1
c p0= 14	p1= 15	p2= 14	
c number of digits = 4
c linkingVar[0].size = 14, linkingVar[1].size = 15, linkingVar[2].size = 14, linkingVar[3].size = 1, 
c Pseudo-Boolean Constraints: 20505 variables and 244654 clauses
c Sum of weights = 167312
c A number of soft clauses remained = 812
c MRWTO encoding for Pseudo-Boolean Constraints
c sizeMax=2741
c No.0 Divisor=14	generated by pow1
c No.1 Divisor=15	generated by pow1
c No.2 Divisor=14	generated by pow1
c p0= 14	p1= 15	p2= 14	
c number of digits = 4
c linkingVar[0].size = 14, linkingVar[1].size = 15, linkingVar[2].size = 14, linkingVar[3].size = 1, 
c Pseudo-Boolean Constraints: 20505 variables and 244654 clauses
c Sum of weights = 167312
c A number of soft clauses remained = 812
c MRWTO encoding for Pseudo-Boolean Constraints
c sizeMax=2741
c No.0 Divisor=14	generated by pow1
c No.1 Divisor=15	generated by pow1
c No.2 Divisor=14	generated by pow1
c p0= 14	p1= 15	p2= 14	
c number of digits = 4
c linkingVar[0].size = 14, linkingVar[1].size = 15, linkingVar[2].size = 14, linkingVar[3].size = 1, 
c Pseudo-Boolean Constraints: 20505 variables and 244654 clauses
c Sum of weights = 167312
c A number of soft clauses remained = 812
c MRWTO encoding for Pseudo-Boolean Constraints
c sizeMax=2741
c No.0 Divisor=14	generated by pow1
c No.1 Divisor=15	generated by pow1
c No.2 Divisor=14	generated by pow1
c p0= 14	p1= 15	p2= 14	
c number of digits = 4
c linkingVar[0].size = 14, linkingVar[1].size = 15, linkingVar[2].size = 14, linkingVar[3].size = 1, 
c Pseudo-Boolean Constraints: 20505 variables and 244654 clauses
c last restart ## conflicts  :  306 15921 
o 2134 | cpuTime 1.8909 s
c last restart ## conflicts  :  212 28862 
o 1628 | cpuTime 2.49361 s
c last restart ## conflicts  :  31 52445 
o 1207 | cpuTime 2.58739 s
c last restart ## conflicts  :  850 18081 
o 1054 | cpuTime 2.91439 s
c last restart ## conflicts  :  1223 11782 
o 1050 | cpuTime 7.54774 s
c last restart ## conflicts  :  299 12314 
o 1028 | cpuTime 9.09454 s
c last restart ## conflicts  :  763 12836 
o 1009 | cpuTime 12.5305 s
c last restart ## conflicts  :  1173 14127 
o 928 | cpuTime 13.9073 s
c last restart ## conflicts  :  247 10530 
o 881 | cpuTime 36.4221 s
c last restart ## conflicts  :  47 16638 
o 840 | cpuTime 66.2907 s
c last restart ## conflicts  :  73 53018 
o 801 | cpuTime 66.4143 s
c last restart ## conflicts  :  679 11551 
o 774 | cpuTime 262.826 s
c last restart ## conflicts  :  347 25191 
o 766 | cpuTime 262.985 s
c last restart ## conflicts  :  7 13457 
o 756 | cpuTime 292.531 s
c last restart ## conflicts  :  67 15339 
o 736 | cpuTime 430.755 s
c last restart ## conflicts  :  276 11689 
o 720 | cpuTime 679.16 s
c last restart ## conflicts  :  1048 12727 
o 697 | cpuTime 918.602 s
s UNKNOWN
c Search is stopped by a limit (maybe time-limit)
cr positiVarArr: [ | 24@1(1->24) | 399@1(14->22) | 420@1(15->14) | 537@1(19->15) | 610@1(22->1) | 686@1(24->19) | 854@2(1->13) | 1212@2(13->23) | 1504@2(23->25) | 1538@2(25->1) | 1703@3(1->21) | 1973@3(11->1) | 2273@3(21->11) | 2526@4(1->3) | 2607@4(3->26) | 3249@4(26->1) | 3368@5(1->4) | 3469@5(4->18) | 3829@5(17->1) | 3874@5(18->17) | 4211@6(1->6) | 4350@6(5->29) | 4362@6(6->12) | 4442@6(9->5) | 4533@6(12->9) | 5018@6(29->1) | 5054@7(1->8) | 5247@7(7->27) | 5256@7(8->7) | 5801@7(27->1) | 5889@8(1->2) | 5926@8(2->10) | 6168@8(10->20) | 6350@8(16->28) | 6454@8(20->16) | 6671@8(28->1) | ]
cr the 1-th chain: [ 1->24->19->15->14->22->1 ] (#non-depot=5) {#cumul.=6}
cr the 2-th chain: [ 1->13->23->25->1 ] (#non-depot=3) {#cumul.=9}
cr the 3-th chain: [ 1->21->11->1 ] (#non-depot=2) {#cumul.=11}
cr the 4-th chain: [ 1->3->26->1 ] (#non-depot=2) {#cumul.=13}
cr the 5-th chain: [ 1->4->18->17->1 ] (#non-depot=3) {#cumul.=16}
cr the 6-th chain: [ 1->6->12->9->5->29->1 ] (#non-depot=5) {#cumul.=21}
cr the 7-th chain: [ 1->8->7->27->1 ] (#non-depot=3) {#cumul.=24}
cr the 8-th chain: [ 1->2->10->20->16->28->1 ] (#non-depot=5) {#cumul.=29}
c Latest Answer = 0 by 18 loops
c restarts              : 72412
c conflicts             : 11331472       (3157 /sec)
c decisions             : 164416541      (0.00 % random) (45814 /sec)
c propagations          : 19700078499    (5489297 /sec)
c conflict literals     : 3341245332     (26.99 % deleted)
c Memory used           : 1670.00 MB
c CPU time              : 3588.82 s
